<number of tasks>
50

<cycle time>
1000

<order strength>
0.596


<task times>
1 426
2 525
3 636
4 535
5 499
6 575
7 539
8 739
9 684
10 348
11 512
12 607
13 552
14 506
15 344
16 371
17 543
18 277
19 528
20 537
21 450
22 400
23 461
24 433
25 633
26 478
27 739
28 539
29 553
30 561
31 433
32 308
33 382
34 281
35 274
36 285
37 507
38 295
39 491
40 542
41 498
42 542
43 479
44 301
45 533
46 615
47 420
48 521
49 548
50 555

<precedence relations>
1,21
2,31
3,31
4,43
5,6
5,7
5,8
6,21
7,9
7,10
7,12
7,15
7,16
7,17
8,10
8,11
8,12
8,13
9,21
10,21
11,31
12,31
13,14
13,15
13,16
13,17
13,18
13,19
13,20
14,21
15,21
16,43
17,40
17,44
18,23
19,21
19,22
19,23
19,24
20,22
20,32
21,25
21,26
21,27
21,28
21,29
21,30
21,31
21,32
22,31
23,32
23,38
23,42
24,31
24,32
25,37
26,37
26,40
26,41
27,37
27,41
28,37
28,41
29,37
29,38
29,42
30,37
30,38
30,41
30,42
31,33
31,34
31,35
31,36
31,37
31,38
32,37
33,41
34,40
34,42
35,39
36,44
36,50
37,43
38,40
38,44
39,43
40,43
41,43
41,44
42,43
43,45
43,46
43,47
43,48
43,49
49,50

<end>
